CMPL model generation - running

CMPL version: 1.11.0
Authors: Thomas Schleiff, Mike Steglich
Distributed under the GPLv3 

create model instance ...
write model instance ...
CMPL model generation - finished

Solver - running


Welcome to IBM(R) ILOG(R) CPLEX(R) Interactive Optimizer 12.7.1.0
  with Simplex, Mixed Integer & Barrier Optimizers
5725-A06 5725-A29 5724-Y48 5724-Y49 5724-Y54 5724-Y55 5655-Y21
Copyright IBM Corp. 1988, 2017.  All Rights Reserved.

Type 'help' for a list of available commands.
Type 'help' followed by a command name for more
information on commands.

CPLEX> Specified objective sense: MINIMIZE
Selected objective  name:  line[1]
Selected RHS        name:  RHS
Selected bound      name:  BOUND
Problem '/tmp/cmpl.T24945.mps' read.
Read time = 0.07 sec. (10.22 ticks)
CPLEX> CPXPARAM_Read_APIEncoding                        "UTF-8"
Tried aggregator 3 times.
MIP Presolve eliminated 22987 rows and 35550 columns.
MIP Presolve modified 589 coefficients.
Aggregator did 1750 substitutions.
Reduced MIP has 3185 rows, 5155 columns, and 15279 nonzeros.
Reduced MIP has 4945 binaries, 0 generals, 0 SOSs, and 0 indicators.
Presolve time = 0.10 sec. (55.79 ticks)
Found incumbent of value 4706.647703 after 0.18 sec. (113.23 ticks)
Probing time = 0.01 sec. (2.76 ticks)
Tried aggregator 1 time.
MIP Presolve eliminated 0 rows and 59 columns.
Reduced MIP has 3185 rows, 5096 columns, and 15161 nonzeros.
Reduced MIP has 5096 binaries, 0 generals, 0 SOSs, and 0 indicators.
Presolve time = 0.02 sec. (14.07 ticks)
Probing time = 0.01 sec. (2.97 ticks)
Clique table members: 4425.
MIP emphasis: balance optimality and feasibility.
MIP search method: dynamic search.
Parallel mode: none, using 1 thread.
Root relaxation solution time = 0.02 sec. (20.79 ticks)

        Nodes                                         Cuts/
   Node  Left     Objective  IInf  Best Integer    Best Bound    ItCnt     Gap

*     0+    0                         4706.6477        0.0000           100.00%
*     0     0      integral     0     2150.7209     2150.7209     1094    0.00%
Elapsed time = 0.25 sec. (164.22 ticks, tree = 0.00 MB, solutions = 2)

Root node processing (before b&c):
  Real time             =    0.25 sec. (165.80 ticks)
Sequential b&c:
  Real time             =    0.00 sec. (0.00 ticks)
                          ------------
Total (root+branch&cut) =    0.25 sec. (165.80 ticks)

Solution pool: 2 solutions saved.

MIP - Integer optimal solution:  Objective =  2.1507209090e+03
Solution time =    0.25 sec.  Iterations = 1094  Nodes = 0
Deterministic time = 165.92 ticks  (655.23 ticks/sec)

CPLEX> Incumbent solution written to file '/tmp/cmpl.T24945.gsol'.
CPLEX> 
CMPL: Time used for model generation: 1 seconds
CMPL: Time used for solving the model: 1 seconds


Solution written to ASCII file: results/output_generated_conf_1/2016-08-01-5/fair-nonlinear.sol

Solver - finished
